(set-info :smt-lib-version 2.6)
(set-logic QF_S)
(set-info :source |
Generated by: Joel Day, Thorsten Ehlers, Mitja Kulczynski, Federico Mora, Florin Manea, Dirk Nowotka, Danny Poulsen, Zhengyang Lu
Application: Test WOORPJE
Target solver: WOORPJE
Publications: Day, J. D., Ehlers, T., Kulczynski, M., Manea, F., Nowotka, D., & Poulsen, D. B. (2019). On solving word equations using SAT. In RP 2019
Description: Consisting of a system of 100 small random word equations with at most 6 letters, 10 variables and length 60.
|)
(set-info :license "https://creativecommons.org/licenses/by/4.0/")
(set-info :category "random")
(set-info :status unknown)

(declare-fun B () String)
(declare-fun G () String)
(declare-fun A () String)
(declare-fun D () String)
(assert (= (str.++  "ddeddabdeccbdedaedaadadcecaacdcdebdddedada" G "ceecceebaebaaedcaacadbabbdbdb")  (str.++  "ddeddabdeccbdedae" D "dbdb") ))
(assert (= (str.++  "ebbdaebaacbdcedcdd" D "bbbcebacbbcadee" G "cdddccbdca")  (str.++  "ebbdaebaacb" B "dcd" B "cecbdbbbcebac" A "bebdbdabacdeddcacdaadbebdbbeeedaededcdddccbdca") ))
(assert (= (str.++  "bbddd" B "ebddecbaceadcccdeabdbdcbdcadaecddcbecbbecaaebcacaddecbadddccdebdbcccacadeceaadeedbacdbaddba")  (str.++  "bbddddceebddecbaceadcccdeabdbdcbdcadaecddcbecbbecaaebcacaddecbadddccdebdbcccacadeceaadeedbacdbaddba" "") ))
(assert (= (str.++  "dbcbeabbbadeaaaeddaaeddcabbbcedaebaadbddeaacaabaeddbacdbaabbbcceecdeabaebcedbaeccceeacccaadbbac" B "a")  (str.++  "dbcbeabbbadeaaaeddaaeddcabbbcedaebaadbddeaacaabaeddbacdbaabbbcceecdeabaebcedbaeccceeacccaadbbacdcea" "") ))
(assert (= (str.++  "ccbeedbdbcacccdebadbddbedbdeeebdabeeaacaacaccedacccae" B "ccdceeabddaececdbcedecadeebdcbbddecaccacdaa")  (str.++  "ccbeedbdbcacccdebadbddbedbdeeebdabeeaacaacaccedacccaedcecc" B "eabddaececdbcedecadeebdcbbddecaccacdaa") ))
(assert (= (str.++  "bcdddeeacabcbdacdbbeddadbecccabdbbdda" B "cdcddcdbbcbaabccaacdbcecaeeaccaaeccbbadbcaccadbcecaaaacdbec")  (str.++  "bcdddeeacabcbdacdbbeddadbecccabdbbdda" B "cdcddcdbbcbaabccaacdbcecaeeaccaaeccbbadbcaccadbcecaaaacdbec") ))
(assert (= (str.++  "cdecdeccbcddaceeedecbaadebaacddeecbeec" B "baeaedabddbbeeaaebbcbccbdabaaaabbadaceebeadcbdeecbebde" B "e")  (str.++  "cdecdeccbcddaceeedecbaadebaacddeecbeec" B "baeaedabddbbeeaaebbcbccbdabaaaabbadaceebeadcbdeecbebde" B "e") ))
(assert (= (str.++  "abedbbcecbcecabbacaadebcbabaeeccd" B "cbededdecaccbedacacbdbba" B "b" B "eeabbbdacdecedcdbcbdceeabeecbcad")  (str.++  "abedbbcecbcecabbacaadebcbabaeeccddcecbededdecaccbedacacbdbba" B "bdceeeabbbdacdecedcdbcb" B "eabeecbcad") ))
(assert (= (str.++  "daeceacdddddbbbeaadbcbcaaaccddaecbbbdeecdaca" B "acbdccbcabcbdadebdabeddade" B "ddccedeaeaddbcdbcdaeaae")  (str.++  "daeceacdddddbbbeaadbcbcaaaccddaecbbbdeecdaca" B "acbdccbcabcbdadebdabeddadedceddccedeaeaddbcdbcdaeaae") ))
(assert (= (str.++  "caadaebcdddaac" B "eedbccdccaeeeebdecbbebceeabadcbebabdccdacccdeabdebbdbddeebeedddcaddadedaaddbeaacaa")  (str.++  "caadaebcdddaacdceeedbccdccaeeeebdecbbebceeabadcbebabdccdacccdeabdebbdbddeebeedddcaddadedaaddbeaacaa" "") ))
(assert (= (str.++  "acccbbaaeececacecaadcbeeadcbdbbdeaebabcbeaedcdabccadded" B "cacaaecdebedbbaedbdbcbdcaeeabababadbcadbd")  (str.++  "acccbbaaeececacecaadcbeeadcbdbbdeaebabcbeaedcdabccaddeddcecacaaecdebedbbaedbdbcbdcaeeabababadbcadbd" "") ))
(assert (= (str.++  "cbcacccbcdaaddeabdbccaeceacaacbccbdbdbcabcddbcecaeeebab" B "acbbaebacddccdabbdaaacebaaceccccadcaebcec")  (str.++  "cbcacccbcdaaddeabdbccaeceacaacbccbdbdbcabcddbcecaeeebabdceacbbaebacddccdabbdaaacebaaceccccadcaebcec" "") ))
(assert (= (str.++  "dddaadccaeddeeaabb" B "acbebbddcbcbeeaabbeeebcabdaeaadaddecdcacaadbdecacaabbadcaedcacaedaaddcdaabeeba")  (str.++  "dddaadccaeddeeaabb" B "acbebbddcbcbeeaabbeeebcabdaeaadaddecdcacaadbdecacaabbadcaedcacaedaaddcdaabeeba") ))
(check-sat)

(exit)
